\ENCODING=ISO-8859-1
\Problem name: ilog.cplex

Minimize
 obj1: x_0_1_0 + 5 x_0_2_0 + 8 x_0_3_0 + 9 x_0_4_0 + 9 x_0_5_0 + x_0_6_0
       + x_0_7_0 + 8 x_0_8_0 + x_1_0_0 + 5 x_2_0_0 + 8 x_3_0_0 + 9 x_4_0_0
       + 9 x_5_0_0 + x_6_0_0 + x_7_0_0 + 8 x_8_0_0 + x_0_1_1 + 5 x_0_2_1
       + 8 x_0_3_1 + 9 x_0_4_1 + 9 x_0_5_1 + x_0_6_1 + x_0_7_1 + 8 x_0_8_1
       + x_1_0_1 + 5 x_2_0_1 + 8 x_3_0_1 + 9 x_4_0_1 + 9 x_5_0_1 + x_6_0_1
       + x_7_0_1 + 8 x_8_0_1 + 5 x_1_2_0 + 7 x_1_3_0 + 8 x_1_4_0 + 8 x_1_5_0
       + x_1_6_0 + x_1_7_0 + 7 x_1_8_0 + 5 x_2_1_0 + 7 x_3_1_0 + 8 x_4_1_0
       + 8 x_5_1_0 + x_6_1_0 + x_7_1_0 + 7 x_8_1_0 + 5 x_1_2_1 + 7 x_1_3_1
       + 8 x_1_4_1 + 8 x_1_5_1 + x_1_6_1 + x_1_7_1 + 7 x_1_8_1 + 5 x_2_1_1
       + 7 x_3_1_1 + 8 x_4_1_1 + 8 x_5_1_1 + x_6_1_1 + x_7_1_1 + 7 x_8_1_1
       + 8 x_2_3_0 + 5 x_2_4_0 + 5 x_2_5_0 + 5 x_2_6_0 + 4 x_2_7_0 + 5 x_2_8_0
       + 8 x_3_2_0 + 5 x_4_2_0 + 5 x_5_2_0 + 5 x_6_2_0 + 4 x_7_2_0 + 5 x_8_2_0
       + 8 x_2_3_1 + 5 x_2_4_1 + 5 x_2_5_1 + 5 x_2_6_1 + 4 x_2_7_1 + 5 x_2_8_1
       + 8 x_3_2_1 + 5 x_4_2_1 + 5 x_5_2_1 + 5 x_6_2_1 + 4 x_7_2_1 + 5 x_8_2_1
       + 5 x_3_4_0 + 7 x_3_5_0 + 8 x_3_6_0 + 7 x_3_7_0 + 4 x_3_8_0 + 5 x_4_3_0
       + 7 x_5_3_0 + 8 x_6_3_0 + 7 x_7_3_0 + 4 x_8_3_0 + 5 x_3_4_1 + 7 x_3_5_1
       + 8 x_3_6_1 + 7 x_3_7_1 + 4 x_3_8_1 + 5 x_4_3_1 + 7 x_5_3_1 + 8 x_6_3_1
       + 7 x_7_3_1 + 4 x_8_3_1 + 2 x_4_5_0 + 9 x_4_6_0 + 8 x_4_7_0 + x_4_8_0
       + 2 x_5_4_0 + 9 x_6_4_0 + 8 x_7_4_0 + x_8_4_0 + 2 x_4_5_1 + 9 x_4_6_1
       + 8 x_4_7_1 + x_4_8_1 + 2 x_5_4_1 + 9 x_6_4_1 + 8 x_7_4_1 + x_8_4_1
       + 9 x_5_6_0 + 8 x_5_7_0 + 3 x_5_8_0 + 9 x_6_5_0 + 8 x_7_5_0 + 3 x_8_5_0
       + 9 x_5_6_1 + 8 x_5_7_1 + 3 x_5_8_1 + 9 x_6_5_1 + 8 x_7_5_1 + 3 x_8_5_1
       + x_6_7_0 + 8 x_6_8_0 + x_7_6_0 + 8 x_8_6_0 + x_6_7_1 + 8 x_6_8_1
       + x_7_6_1 + 8 x_8_6_1 + 7 x_7_8_0 + 7 x_8_7_0 + 7 x_7_8_1 + 7 x_8_7_1
Subject To
 c1:         x_0_0_0  = 0
 c2:         x_0_0_1  = 0
 c3:         x_1_1_0  = 0
 c4:         x_1_1_1  = 0
 c5:         x_2_2_0  = 0
 c6:         x_2_2_1  = 0
 c7:         x_3_3_0  = 0
 c8:         x_3_3_1  = 0
 c9:         x_4_4_0  = 0
 c10:        x_4_4_1  = 0
 c11:        x_5_5_0  = 0
 c12:        x_5_5_1  = 0
 c13:        x_6_6_0  = 0
 c14:        x_6_6_1  = 0
 c15:        x_7_7_0  = 0
 c16:        x_7_7_1  = 0
 c17:        x_8_8_0  = 0
 c18:        x_8_8_1  = 0
 flow_0_0:   x_0_1_0 + x_0_2_0 + x_0_3_0 + x_0_4_0 + x_0_5_0 + x_0_6_0
             + x_0_7_0 + x_0_8_0 - x_1_0_0 - x_2_0_0 - x_3_0_0 - x_4_0_0
             - x_5_0_0 - x_6_0_0 - x_7_0_0 - x_8_0_0  = 0
 flow_0_1:   x_0_1_1 + x_0_2_1 + x_0_3_1 + x_0_4_1 + x_0_5_1 + x_0_6_1
             + x_0_7_1 + x_0_8_1 - x_1_0_1 - x_2_0_1 - x_3_0_1 - x_4_0_1
             - x_5_0_1 - x_6_0_1 - x_7_0_1 - x_8_0_1  = 0
 flow_1_0:   - x_0_1_0 + x_1_0_0 + x_1_2_0 + x_1_3_0 + x_1_4_0 + x_1_5_0
             + x_1_6_0 + x_1_7_0 + x_1_8_0 - x_2_1_0 - x_3_1_0 - x_4_1_0
             - x_5_1_0 - x_6_1_0 - x_7_1_0 - x_8_1_0  = 0
 flow_1_1:   - x_0_1_1 + x_1_0_1 + x_1_2_1 + x_1_3_1 + x_1_4_1 + x_1_5_1
             + x_1_6_1 + x_1_7_1 + x_1_8_1 - x_2_1_1 - x_3_1_1 - x_4_1_1
             - x_5_1_1 - x_6_1_1 - x_7_1_1 - x_8_1_1  = 0
 flow_2_0:   - x_0_2_0 + x_2_0_0 - x_1_2_0 + x_2_1_0 + x_2_3_0 + x_2_4_0
             + x_2_5_0 + x_2_6_0 + x_2_7_0 + x_2_8_0 - x_3_2_0 - x_4_2_0
             - x_5_2_0 - x_6_2_0 - x_7_2_0 - x_8_2_0  = 0
 flow_2_1:   - x_0_2_1 + x_2_0_1 - x_1_2_1 + x_2_1_1 + x_2_3_1 + x_2_4_1
             + x_2_5_1 + x_2_6_1 + x_2_7_1 + x_2_8_1 - x_3_2_1 - x_4_2_1
             - x_5_2_1 - x_6_2_1 - x_7_2_1 - x_8_2_1  = 0
 flow_3_0:   - x_0_3_0 + x_3_0_0 - x_1_3_0 + x_3_1_0 - x_2_3_0 + x_3_2_0
             + x_3_4_0 + x_3_5_0 + x_3_6_0 + x_3_7_0 + x_3_8_0 - x_4_3_0
             - x_5_3_0 - x_6_3_0 - x_7_3_0 - x_8_3_0  = 0
 flow_3_1:   - x_0_3_1 + x_3_0_1 - x_1_3_1 + x_3_1_1 - x_2_3_1 + x_3_2_1
             + x_3_4_1 + x_3_5_1 + x_3_6_1 + x_3_7_1 + x_3_8_1 - x_4_3_1
             - x_5_3_1 - x_6_3_1 - x_7_3_1 - x_8_3_1  = 0
 flow_4_0:   - x_0_4_0 + x_4_0_0 - x_1_4_0 + x_4_1_0 - x_2_4_0 + x_4_2_0
             - x_3_4_0 + x_4_3_0 + x_4_5_0 + x_4_6_0 + x_4_7_0 + x_4_8_0
             - x_5_4_0 - x_6_4_0 - x_7_4_0 - x_8_4_0  = 0
 flow_4_1:   - x_0_4_1 + x_4_0_1 - x_1_4_1 + x_4_1_1 - x_2_4_1 + x_4_2_1
             - x_3_4_1 + x_4_3_1 + x_4_5_1 + x_4_6_1 + x_4_7_1 + x_4_8_1
             - x_5_4_1 - x_6_4_1 - x_7_4_1 - x_8_4_1  = 0
 flow_5_0:   - x_0_5_0 + x_5_0_0 - x_1_5_0 + x_5_1_0 - x_2_5_0 + x_5_2_0
             - x_3_5_0 + x_5_3_0 - x_4_5_0 + x_5_4_0 + x_5_6_0 + x_5_7_0
             + x_5_8_0 - x_6_5_0 - x_7_5_0 - x_8_5_0  = 0
 flow_5_1:   - x_0_5_1 + x_5_0_1 - x_1_5_1 + x_5_1_1 - x_2_5_1 + x_5_2_1
             - x_3_5_1 + x_5_3_1 - x_4_5_1 + x_5_4_1 + x_5_6_1 + x_5_7_1
             + x_5_8_1 - x_6_5_1 - x_7_5_1 - x_8_5_1  = 0
 flow_6_0:   - x_0_6_0 + x_6_0_0 - x_1_6_0 + x_6_1_0 - x_2_6_0 + x_6_2_0
             - x_3_6_0 + x_6_3_0 - x_4_6_0 + x_6_4_0 - x_5_6_0 + x_6_5_0
             + x_6_7_0 + x_6_8_0 - x_7_6_0 - x_8_6_0  = 0
 flow_6_1:   - x_0_6_1 + x_6_0_1 - x_1_6_1 + x_6_1_1 - x_2_6_1 + x_6_2_1
             - x_3_6_1 + x_6_3_1 - x_4_6_1 + x_6_4_1 - x_5_6_1 + x_6_5_1
             + x_6_7_1 + x_6_8_1 - x_7_6_1 - x_8_6_1  = 0
 flow_7_0:   - x_0_7_0 + x_7_0_0 - x_1_7_0 + x_7_1_0 - x_2_7_0 + x_7_2_0
             - x_3_7_0 + x_7_3_0 - x_4_7_0 + x_7_4_0 - x_5_7_0 + x_7_5_0
             - x_6_7_0 + x_7_6_0 + x_7_8_0 - x_8_7_0  = 0
 flow_7_1:   - x_0_7_1 + x_7_0_1 - x_1_7_1 + x_7_1_1 - x_2_7_1 + x_7_2_1
             - x_3_7_1 + x_7_3_1 - x_4_7_1 + x_7_4_1 - x_5_7_1 + x_7_5_1
             - x_6_7_1 + x_7_6_1 + x_7_8_1 - x_8_7_1  = 0
 flow_8_0:   - x_0_8_0 + x_8_0_0 - x_1_8_0 + x_8_1_0 - x_2_8_0 + x_8_2_0
             - x_3_8_0 + x_8_3_0 - x_4_8_0 + x_8_4_0 - x_5_8_0 + x_8_5_0
             - x_6_8_0 + x_8_6_0 - x_7_8_0 + x_8_7_0  = 0
 flow_8_1:   - x_0_8_1 + x_8_0_1 - x_1_8_1 + x_8_1_1 - x_2_8_1 + x_8_2_1
             - x_3_8_1 + x_8_3_1 - x_4_8_1 + x_8_4_1 - x_5_8_1 + x_8_5_1
             - x_6_8_1 + x_8_6_1 - x_7_8_1 + x_8_7_1  = 0
 serving_0:  y_0_1 + y_0_0  = 1
 serving_1:  y_1_1 + y_1_0  = 1
 serving_2:  y_2_1 + y_2_0  = 1
 serving_3:  y_3_1 + y_3_0  = 1
 depot_0:    x_0_0_0 + x_0_1_0 + x_0_2_0 + x_0_3_0 + x_0_4_0 + x_0_5_0
             + x_0_6_0 + x_0_7_0 + x_0_8_0 <= 1
 depot_1:    x_0_0_1 + x_0_1_1 + x_0_2_1 + x_0_3_1 + x_0_4_1 + x_0_5_1
             + x_0_6_1 + x_0_7_1 + x_0_8_1 <= 1
 visit_0_0:  - x_3_3_0 - x_0_3_0 - x_1_3_0 - x_2_3_0 - x_4_3_0 - x_5_3_0
             - x_6_3_0 - x_7_3_0 - x_8_3_0 + y_0_0 <= 0
 visit_0_1:  - x_3_3_1 - x_0_3_1 - x_1_3_1 - x_2_3_1 - x_4_3_1 - x_5_3_1
             - x_6_3_1 - x_7_3_1 - x_8_3_1 + y_0_1 <= 0
 visit_1_0:  - x_4_4_0 - x_5_5_0 - x_0_4_0 - x_0_5_0 - x_1_4_0 - x_1_5_0
             - x_2_4_0 - x_2_5_0 - x_3_4_0 - x_3_5_0 - x_4_5_0 - x_5_4_0
             - x_6_4_0 - x_7_4_0 - x_8_4_0 - x_6_5_0 - x_7_5_0 - x_8_5_0
             + y_1_0 <= 0
 visit_1_1:  - x_4_4_1 - x_5_5_1 - x_0_4_1 - x_0_5_1 - x_1_4_1 - x_1_5_1
             - x_2_4_1 - x_2_5_1 - x_3_4_1 - x_3_5_1 - x_4_5_1 - x_5_4_1
             - x_6_4_1 - x_7_4_1 - x_8_4_1 - x_6_5_1 - x_7_5_1 - x_8_5_1
             + y_1_1 <= 0
 visit_2_0:  - x_0_0_0 - x_1_1_0 - x_6_6_0 - x_7_7_0 - x_0_1_0 - x_0_6_0
             - x_0_7_0 - x_1_0_0 - x_2_0_0 - x_3_0_0 - x_4_0_0 - x_5_0_0
             - x_6_0_0 - x_7_0_0 - x_8_0_0 - x_1_6_0 - x_1_7_0 - x_2_1_0
             - x_3_1_0 - x_4_1_0 - x_5_1_0 - x_6_1_0 - x_7_1_0 - x_8_1_0
             - x_2_6_0 - x_2_7_0 - x_3_6_0 - x_3_7_0 - x_4_6_0 - x_4_7_0
             - x_5_6_0 - x_5_7_0 - x_6_7_0 - x_7_6_0 - x_8_6_0 - x_8_7_0
             + y_2_0 <= 0
 visit_2_1:  - x_0_0_1 - x_1_1_1 - x_6_6_1 - x_7_7_1 - x_0_1_1 - x_0_6_1
             - x_0_7_1 - x_1_0_1 - x_2_0_1 - x_3_0_1 - x_4_0_1 - x_5_0_1
             - x_6_0_1 - x_7_0_1 - x_8_0_1 - x_1_6_1 - x_1_7_1 - x_2_1_1
             - x_3_1_1 - x_4_1_1 - x_5_1_1 - x_6_1_1 - x_7_1_1 - x_8_1_1
             - x_2_6_1 - x_2_7_1 - x_3_6_1 - x_3_7_1 - x_4_6_1 - x_4_7_1
             - x_5_6_1 - x_5_7_1 - x_6_7_1 - x_7_6_1 - x_8_6_1 - x_8_7_1
             + y_2_1 <= 0
 visit_3_0:  - x_0_0_0 - x_1_1_0 - x_6_6_0 - x_7_7_0 - x_0_1_0 - x_0_6_0
             - x_0_7_0 - x_1_0_0 - x_2_0_0 - x_3_0_0 - x_4_0_0 - x_5_0_0
             - x_6_0_0 - x_7_0_0 - x_8_0_0 - x_1_6_0 - x_1_7_0 - x_2_1_0
             - x_3_1_0 - x_4_1_0 - x_5_1_0 - x_6_1_0 - x_7_1_0 - x_8_1_0
             - x_2_6_0 - x_2_7_0 - x_3_6_0 - x_3_7_0 - x_4_6_0 - x_4_7_0
             - x_5_6_0 - x_5_7_0 - x_6_7_0 - x_7_6_0 - x_8_6_0 - x_8_7_0
             + y_3_0 <= 0
 visit_3_1:  - x_0_0_1 - x_1_1_1 - x_6_6_1 - x_7_7_1 - x_0_1_1 - x_0_6_1
             - x_0_7_1 - x_1_0_1 - x_2_0_1 - x_3_0_1 - x_4_0_1 - x_5_0_1
             - x_6_0_1 - x_7_0_1 - x_8_0_1 - x_1_6_1 - x_1_7_1 - x_2_1_1
             - x_3_1_1 - x_4_1_1 - x_5_1_1 - x_6_1_1 - x_7_1_1 - x_8_1_1
             - x_2_6_1 - x_2_7_1 - x_3_6_1 - x_3_7_1 - x_4_6_1 - x_4_7_1
             - x_5_6_1 - x_5_7_1 - x_6_7_1 - x_7_6_1 - x_8_6_1 - x_8_7_1
             + y_3_1 <= 0
 capacity_0: 68 y_0_0 + 66 y_1_0 + 36 y_2_0 + 56 y_3_0 <= 122
 capacity_1: 68 y_0_1 + 66 y_1_1 + 36 y_2_1 + 56 y_3_1 <= 122
 mtz_1_2_0:  8 x_1_2_0 + u_1_0 - u_2_0 <= 7
 mtz_1_2_1:  8 x_1_2_1 + u_1_1 - u_2_1 <= 7
 mtz_1_3_0:  8 x_1_3_0 + u_1_0 - u_3_0 <= 7
 mtz_1_3_1:  8 x_1_3_1 + u_1_1 - u_3_1 <= 7
 mtz_1_4_0:  8 x_1_4_0 + u_1_0 - u_4_0 <= 7
 mtz_1_4_1:  8 x_1_4_1 + u_1_1 - u_4_1 <= 7
 mtz_1_5_0:  8 x_1_5_0 + u_1_0 - u_5_0 <= 7
 mtz_1_5_1:  8 x_1_5_1 + u_1_1 - u_5_1 <= 7
 mtz_1_6_0:  8 x_1_6_0 + u_1_0 - u_6_0 <= 7
 mtz_1_6_1:  8 x_1_6_1 + u_1_1 - u_6_1 <= 7
 mtz_1_7_0:  8 x_1_7_0 + u_1_0 - u_7_0 <= 7
 mtz_1_7_1:  8 x_1_7_1 + u_1_1 - u_7_1 <= 7
 mtz_1_8_0:  8 x_1_8_0 + u_1_0 - u_8_0 <= 7
 mtz_1_8_1:  8 x_1_8_1 + u_1_1 - u_8_1 <= 7
 mtz_2_1_0:  8 x_2_1_0 - u_1_0 + u_2_0 <= 7
 mtz_2_1_1:  8 x_2_1_1 - u_1_1 + u_2_1 <= 7
 mtz_2_3_0:  8 x_2_3_0 + u_2_0 - u_3_0 <= 7
 mtz_2_3_1:  8 x_2_3_1 + u_2_1 - u_3_1 <= 7
 mtz_2_4_0:  8 x_2_4_0 + u_2_0 - u_4_0 <= 7
 mtz_2_4_1:  8 x_2_4_1 + u_2_1 - u_4_1 <= 7
 mtz_2_5_0:  8 x_2_5_0 + u_2_0 - u_5_0 <= 7
 mtz_2_5_1:  8 x_2_5_1 + u_2_1 - u_5_1 <= 7
 mtz_2_6_0:  8 x_2_6_0 + u_2_0 - u_6_0 <= 7
 mtz_2_6_1:  8 x_2_6_1 + u_2_1 - u_6_1 <= 7
 mtz_2_7_0:  8 x_2_7_0 + u_2_0 - u_7_0 <= 7
 mtz_2_7_1:  8 x_2_7_1 + u_2_1 - u_7_1 <= 7
 mtz_2_8_0:  8 x_2_8_0 + u_2_0 - u_8_0 <= 7
 mtz_2_8_1:  8 x_2_8_1 + u_2_1 - u_8_1 <= 7
 mtz_3_1_0:  8 x_3_1_0 - u_1_0 + u_3_0 <= 7
 mtz_3_1_1:  8 x_3_1_1 - u_1_1 + u_3_1 <= 7
 mtz_3_2_0:  8 x_3_2_0 - u_2_0 + u_3_0 <= 7
 mtz_3_2_1:  8 x_3_2_1 - u_2_1 + u_3_1 <= 7
 mtz_3_4_0:  8 x_3_4_0 + u_3_0 - u_4_0 <= 7
 mtz_3_4_1:  8 x_3_4_1 + u_3_1 - u_4_1 <= 7
 mtz_3_5_0:  8 x_3_5_0 + u_3_0 - u_5_0 <= 7
 mtz_3_5_1:  8 x_3_5_1 + u_3_1 - u_5_1 <= 7
 mtz_3_6_0:  8 x_3_6_0 + u_3_0 - u_6_0 <= 7
 mtz_3_6_1:  8 x_3_6_1 + u_3_1 - u_6_1 <= 7
 mtz_3_7_0:  8 x_3_7_0 + u_3_0 - u_7_0 <= 7
 mtz_3_7_1:  8 x_3_7_1 + u_3_1 - u_7_1 <= 7
 mtz_3_8_0:  8 x_3_8_0 + u_3_0 - u_8_0 <= 7
 mtz_3_8_1:  8 x_3_8_1 + u_3_1 - u_8_1 <= 7
 mtz_4_1_0:  8 x_4_1_0 - u_1_0 + u_4_0 <= 7
 mtz_4_1_1:  8 x_4_1_1 - u_1_1 + u_4_1 <= 7
 mtz_4_2_0:  8 x_4_2_0 - u_2_0 + u_4_0 <= 7
 mtz_4_2_1:  8 x_4_2_1 - u_2_1 + u_4_1 <= 7
 mtz_4_3_0:  8 x_4_3_0 - u_3_0 + u_4_0 <= 7
 mtz_4_3_1:  8 x_4_3_1 - u_3_1 + u_4_1 <= 7
 mtz_4_5_0:  8 x_4_5_0 + u_4_0 - u_5_0 <= 7
 mtz_4_5_1:  8 x_4_5_1 + u_4_1 - u_5_1 <= 7
 mtz_4_6_0:  8 x_4_6_0 + u_4_0 - u_6_0 <= 7
 mtz_4_6_1:  8 x_4_6_1 + u_4_1 - u_6_1 <= 7
 mtz_4_7_0:  8 x_4_7_0 + u_4_0 - u_7_0 <= 7
 mtz_4_7_1:  8 x_4_7_1 + u_4_1 - u_7_1 <= 7
 mtz_4_8_0:  8 x_4_8_0 + u_4_0 - u_8_0 <= 7
 mtz_4_8_1:  8 x_4_8_1 + u_4_1 - u_8_1 <= 7
 mtz_5_1_0:  8 x_5_1_0 - u_1_0 + u_5_0 <= 7
 mtz_5_1_1:  8 x_5_1_1 - u_1_1 + u_5_1 <= 7
 mtz_5_2_0:  8 x_5_2_0 - u_2_0 + u_5_0 <= 7
 mtz_5_2_1:  8 x_5_2_1 - u_2_1 + u_5_1 <= 7
 mtz_5_3_0:  8 x_5_3_0 - u_3_0 + u_5_0 <= 7
 mtz_5_3_1:  8 x_5_3_1 - u_3_1 + u_5_1 <= 7
 mtz_5_4_0:  8 x_5_4_0 - u_4_0 + u_5_0 <= 7
 mtz_5_4_1:  8 x_5_4_1 - u_4_1 + u_5_1 <= 7
 mtz_5_6_0:  8 x_5_6_0 + u_5_0 - u_6_0 <= 7
 mtz_5_6_1:  8 x_5_6_1 + u_5_1 - u_6_1 <= 7
 mtz_5_7_0:  8 x_5_7_0 + u_5_0 - u_7_0 <= 7
 mtz_5_7_1:  8 x_5_7_1 + u_5_1 - u_7_1 <= 7
 mtz_5_8_0:  8 x_5_8_0 + u_5_0 - u_8_0 <= 7
 mtz_5_8_1:  8 x_5_8_1 + u_5_1 - u_8_1 <= 7
 mtz_6_1_0:  8 x_6_1_0 - u_1_0 + u_6_0 <= 7
 mtz_6_1_1:  8 x_6_1_1 - u_1_1 + u_6_1 <= 7
 mtz_6_2_0:  8 x_6_2_0 - u_2_0 + u_6_0 <= 7
 mtz_6_2_1:  8 x_6_2_1 - u_2_1 + u_6_1 <= 7
 mtz_6_3_0:  8 x_6_3_0 - u_3_0 + u_6_0 <= 7
 mtz_6_3_1:  8 x_6_3_1 - u_3_1 + u_6_1 <= 7
 mtz_6_4_0:  8 x_6_4_0 - u_4_0 + u_6_0 <= 7
 mtz_6_4_1:  8 x_6_4_1 - u_4_1 + u_6_1 <= 7
 mtz_6_5_0:  8 x_6_5_0 - u_5_0 + u_6_0 <= 7
 mtz_6_5_1:  8 x_6_5_1 - u_5_1 + u_6_1 <= 7
 mtz_6_7_0:  8 x_6_7_0 + u_6_0 - u_7_0 <= 7
 mtz_6_7_1:  8 x_6_7_1 + u_6_1 - u_7_1 <= 7
 mtz_6_8_0:  8 x_6_8_0 + u_6_0 - u_8_0 <= 7
 mtz_6_8_1:  8 x_6_8_1 + u_6_1 - u_8_1 <= 7
 mtz_7_1_0:  8 x_7_1_0 - u_1_0 + u_7_0 <= 7
 mtz_7_1_1:  8 x_7_1_1 - u_1_1 + u_7_1 <= 7
 mtz_7_2_0:  8 x_7_2_0 - u_2_0 + u_7_0 <= 7
 mtz_7_2_1:  8 x_7_2_1 - u_2_1 + u_7_1 <= 7
 mtz_7_3_0:  8 x_7_3_0 - u_3_0 + u_7_0 <= 7
 mtz_7_3_1:  8 x_7_3_1 - u_3_1 + u_7_1 <= 7
 mtz_7_4_0:  8 x_7_4_0 - u_4_0 + u_7_0 <= 7
 mtz_7_4_1:  8 x_7_4_1 - u_4_1 + u_7_1 <= 7
 mtz_7_5_0:  8 x_7_5_0 - u_5_0 + u_7_0 <= 7
 mtz_7_5_1:  8 x_7_5_1 - u_5_1 + u_7_1 <= 7
 mtz_7_6_0:  8 x_7_6_0 - u_6_0 + u_7_0 <= 7
 mtz_7_6_1:  8 x_7_6_1 - u_6_1 + u_7_1 <= 7
 mtz_7_8_0:  8 x_7_8_0 + u_7_0 - u_8_0 <= 7
 mtz_7_8_1:  8 x_7_8_1 + u_7_1 - u_8_1 <= 7
 mtz_8_1_0:  8 x_8_1_0 - u_1_0 + u_8_0 <= 7
 mtz_8_1_1:  8 x_8_1_1 - u_1_1 + u_8_1 <= 7
 mtz_8_2_0:  8 x_8_2_0 - u_2_0 + u_8_0 <= 7
 mtz_8_2_1:  8 x_8_2_1 - u_2_1 + u_8_1 <= 7
 mtz_8_3_0:  8 x_8_3_0 - u_3_0 + u_8_0 <= 7
 mtz_8_3_1:  8 x_8_3_1 - u_3_1 + u_8_1 <= 7
 mtz_8_4_0:  8 x_8_4_0 - u_4_0 + u_8_0 <= 7
 mtz_8_4_1:  8 x_8_4_1 - u_4_1 + u_8_1 <= 7
 mtz_8_5_0:  8 x_8_5_0 - u_5_0 + u_8_0 <= 7
 mtz_8_5_1:  8 x_8_5_1 - u_5_1 + u_8_1 <= 7
 mtz_8_6_0:  8 x_8_6_0 - u_6_0 + u_8_0 <= 7
 mtz_8_6_1:  8 x_8_6_1 - u_6_1 + u_8_1 <= 7
 mtz_8_7_0:  8 x_8_7_0 - u_7_0 + u_8_0 <= 7
 mtz_8_7_1:  8 x_8_7_1 - u_7_1 + u_8_1 <= 7
Bounds
 0 <= x_0_0_0 <= 1
 0 <= x_0_0_1 <= 1
 0 <= x_1_1_0 <= 1
 0 <= x_1_1_1 <= 1
 0 <= x_2_2_0 <= 1
 0 <= x_2_2_1 <= 1
 0 <= x_3_3_0 <= 1
 0 <= x_3_3_1 <= 1
 0 <= x_4_4_0 <= 1
 0 <= x_4_4_1 <= 1
 0 <= x_5_5_0 <= 1
 0 <= x_5_5_1 <= 1
 0 <= x_6_6_0 <= 1
 0 <= x_6_6_1 <= 1
 0 <= x_7_7_0 <= 1
 0 <= x_7_7_1 <= 1
 0 <= x_8_8_0 <= 1
 0 <= x_8_8_1 <= 1
 0 <= x_0_1_0 <= 1
 0 <= x_0_2_0 <= 1
 0 <= x_0_3_0 <= 1
 0 <= x_0_4_0 <= 1
 0 <= x_0_5_0 <= 1
 0 <= x_0_6_0 <= 1
 0 <= x_0_7_0 <= 1
 0 <= x_0_8_0 <= 1
 0 <= x_1_0_0 <= 1
 0 <= x_2_0_0 <= 1
 0 <= x_3_0_0 <= 1
 0 <= x_4_0_0 <= 1
 0 <= x_5_0_0 <= 1
 0 <= x_6_0_0 <= 1
 0 <= x_7_0_0 <= 1
 0 <= x_8_0_0 <= 1
 0 <= x_0_1_1 <= 1
 0 <= x_0_2_1 <= 1
 0 <= x_0_3_1 <= 1
 0 <= x_0_4_1 <= 1
 0 <= x_0_5_1 <= 1
 0 <= x_0_6_1 <= 1
 0 <= x_0_7_1 <= 1
 0 <= x_0_8_1 <= 1
 0 <= x_1_0_1 <= 1
 0 <= x_2_0_1 <= 1
 0 <= x_3_0_1 <= 1
 0 <= x_4_0_1 <= 1
 0 <= x_5_0_1 <= 1
 0 <= x_6_0_1 <= 1
 0 <= x_7_0_1 <= 1
 0 <= x_8_0_1 <= 1
 0 <= x_1_2_0 <= 1
 0 <= x_1_3_0 <= 1
 0 <= x_1_4_0 <= 1
 0 <= x_1_5_0 <= 1
 0 <= x_1_6_0 <= 1
 0 <= x_1_7_0 <= 1
 0 <= x_1_8_0 <= 1
 0 <= x_2_1_0 <= 1
 0 <= x_3_1_0 <= 1
 0 <= x_4_1_0 <= 1
 0 <= x_5_1_0 <= 1
 0 <= x_6_1_0 <= 1
 0 <= x_7_1_0 <= 1
 0 <= x_8_1_0 <= 1
 0 <= x_1_2_1 <= 1
 0 <= x_1_3_1 <= 1
 0 <= x_1_4_1 <= 1
 0 <= x_1_5_1 <= 1
 0 <= x_1_6_1 <= 1
 0 <= x_1_7_1 <= 1
 0 <= x_1_8_1 <= 1
 0 <= x_2_1_1 <= 1
 0 <= x_3_1_1 <= 1
 0 <= x_4_1_1 <= 1
 0 <= x_5_1_1 <= 1
 0 <= x_6_1_1 <= 1
 0 <= x_7_1_1 <= 1
 0 <= x_8_1_1 <= 1
 0 <= x_2_3_0 <= 1
 0 <= x_2_4_0 <= 1
 0 <= x_2_5_0 <= 1
 0 <= x_2_6_0 <= 1
 0 <= x_2_7_0 <= 1
 0 <= x_2_8_0 <= 1
 0 <= x_3_2_0 <= 1
 0 <= x_4_2_0 <= 1
 0 <= x_5_2_0 <= 1
 0 <= x_6_2_0 <= 1
 0 <= x_7_2_0 <= 1
 0 <= x_8_2_0 <= 1
 0 <= x_2_3_1 <= 1
 0 <= x_2_4_1 <= 1
 0 <= x_2_5_1 <= 1
 0 <= x_2_6_1 <= 1
 0 <= x_2_7_1 <= 1
 0 <= x_2_8_1 <= 1
 0 <= x_3_2_1 <= 1
 0 <= x_4_2_1 <= 1
 0 <= x_5_2_1 <= 1
 0 <= x_6_2_1 <= 1
 0 <= x_7_2_1 <= 1
 0 <= x_8_2_1 <= 1
 0 <= x_3_4_0 <= 1
 0 <= x_3_5_0 <= 1
 0 <= x_3_6_0 <= 1
 0 <= x_3_7_0 <= 1
 0 <= x_3_8_0 <= 1
 0 <= x_4_3_0 <= 1
 0 <= x_5_3_0 <= 1
 0 <= x_6_3_0 <= 1
 0 <= x_7_3_0 <= 1
 0 <= x_8_3_0 <= 1
 0 <= x_3_4_1 <= 1
 0 <= x_3_5_1 <= 1
 0 <= x_3_6_1 <= 1
 0 <= x_3_7_1 <= 1
 0 <= x_3_8_1 <= 1
 0 <= x_4_3_1 <= 1
 0 <= x_5_3_1 <= 1
 0 <= x_6_3_1 <= 1
 0 <= x_7_3_1 <= 1
 0 <= x_8_3_1 <= 1
 0 <= x_4_5_0 <= 1
 0 <= x_4_6_0 <= 1
 0 <= x_4_7_0 <= 1
 0 <= x_4_8_0 <= 1
 0 <= x_5_4_0 <= 1
 0 <= x_6_4_0 <= 1
 0 <= x_7_4_0 <= 1
 0 <= x_8_4_0 <= 1
 0 <= x_4_5_1 <= 1
 0 <= x_4_6_1 <= 1
 0 <= x_4_7_1 <= 1
 0 <= x_4_8_1 <= 1
 0 <= x_5_4_1 <= 1
 0 <= x_6_4_1 <= 1
 0 <= x_7_4_1 <= 1
 0 <= x_8_4_1 <= 1
 0 <= x_5_6_0 <= 1
 0 <= x_5_7_0 <= 1
 0 <= x_5_8_0 <= 1
 0 <= x_6_5_0 <= 1
 0 <= x_7_5_0 <= 1
 0 <= x_8_5_0 <= 1
 0 <= x_5_6_1 <= 1
 0 <= x_5_7_1 <= 1
 0 <= x_5_8_1 <= 1
 0 <= x_6_5_1 <= 1
 0 <= x_7_5_1 <= 1
 0 <= x_8_5_1 <= 1
 0 <= x_6_7_0 <= 1
 0 <= x_6_8_0 <= 1
 0 <= x_7_6_0 <= 1
 0 <= x_8_6_0 <= 1
 0 <= x_6_7_1 <= 1
 0 <= x_6_8_1 <= 1
 0 <= x_7_6_1 <= 1
 0 <= x_8_6_1 <= 1
 0 <= x_7_8_0 <= 1
 0 <= x_8_7_0 <= 1
 0 <= x_7_8_1 <= 1
 0 <= x_8_7_1 <= 1
 0 <= y_0_1 <= 1
 0 <= y_0_0 <= 1
 0 <= y_1_1 <= 1
 0 <= y_1_0 <= 1
 0 <= y_2_1 <= 1
 0 <= y_2_0 <= 1
 0 <= y_3_1 <= 1
 0 <= y_3_0 <= 1
 1 <= u_1_0 <= 8
 1 <= u_2_0 <= 8
 1 <= u_1_1 <= 8
 1 <= u_2_1 <= 8
 1 <= u_3_0 <= 8
 1 <= u_3_1 <= 8
 1 <= u_4_0 <= 8
 1 <= u_4_1 <= 8
 1 <= u_5_0 <= 8
 1 <= u_5_1 <= 8
 1 <= u_6_0 <= 8
 1 <= u_6_1 <= 8
 1 <= u_7_0 <= 8
 1 <= u_7_1 <= 8
 1 <= u_8_0 <= 8
 1 <= u_8_1 <= 8
Binaries
 x_0_0_0  x_0_0_1  x_1_1_0  x_1_1_1  x_2_2_0  x_2_2_1  x_3_3_0  x_3_3_1 
 x_4_4_0  x_4_4_1  x_5_5_0  x_5_5_1  x_6_6_0  x_6_6_1  x_7_7_0  x_7_7_1 
 x_8_8_0  x_8_8_1  x_0_1_0  x_0_2_0  x_0_3_0  x_0_4_0  x_0_5_0  x_0_6_0 
 x_0_7_0  x_0_8_0  x_1_0_0  x_2_0_0  x_3_0_0  x_4_0_0  x_5_0_0  x_6_0_0 
 x_7_0_0  x_8_0_0  x_0_1_1  x_0_2_1  x_0_3_1  x_0_4_1  x_0_5_1  x_0_6_1 
 x_0_7_1  x_0_8_1  x_1_0_1  x_2_0_1  x_3_0_1  x_4_0_1  x_5_0_1  x_6_0_1 
 x_7_0_1  x_8_0_1  x_1_2_0  x_1_3_0  x_1_4_0  x_1_5_0  x_1_6_0  x_1_7_0 
 x_1_8_0  x_2_1_0  x_3_1_0  x_4_1_0  x_5_1_0  x_6_1_0  x_7_1_0  x_8_1_0 
 x_1_2_1  x_1_3_1  x_1_4_1  x_1_5_1  x_1_6_1  x_1_7_1  x_1_8_1  x_2_1_1 
 x_3_1_1  x_4_1_1  x_5_1_1  x_6_1_1  x_7_1_1  x_8_1_1  x_2_3_0  x_2_4_0 
 x_2_5_0  x_2_6_0  x_2_7_0  x_2_8_0  x_3_2_0  x_4_2_0  x_5_2_0  x_6_2_0 
 x_7_2_0  x_8_2_0  x_2_3_1  x_2_4_1  x_2_5_1  x_2_6_1  x_2_7_1  x_2_8_1 
 x_3_2_1  x_4_2_1  x_5_2_1  x_6_2_1  x_7_2_1  x_8_2_1  x_3_4_0  x_3_5_0 
 x_3_6_0  x_3_7_0  x_3_8_0  x_4_3_0  x_5_3_0  x_6_3_0  x_7_3_0  x_8_3_0 
 x_3_4_1  x_3_5_1  x_3_6_1  x_3_7_1  x_3_8_1  x_4_3_1  x_5_3_1  x_6_3_1 
 x_7_3_1  x_8_3_1  x_4_5_0  x_4_6_0  x_4_7_0  x_4_8_0  x_5_4_0  x_6_4_0 
 x_7_4_0  x_8_4_0  x_4_5_1  x_4_6_1  x_4_7_1  x_4_8_1  x_5_4_1  x_6_4_1 
 x_7_4_1  x_8_4_1  x_5_6_0  x_5_7_0  x_5_8_0  x_6_5_0  x_7_5_0  x_8_5_0 
 x_5_6_1  x_5_7_1  x_5_8_1  x_6_5_1  x_7_5_1  x_8_5_1  x_6_7_0  x_6_8_0 
 x_7_6_0  x_8_6_0  x_6_7_1  x_6_8_1  x_7_6_1  x_8_6_1  x_7_8_0  x_8_7_0 
 x_7_8_1  x_8_7_1  y_0_1  y_0_0  y_1_1  y_1_0  y_2_1  y_2_0  y_3_1  y_3_0 
Generals
 u_1_0  u_2_0  u_1_1  u_2_1  u_3_0  u_3_1  u_4_0  u_4_1  u_5_0  u_5_1  u_6_0 
 u_6_1  u_7_0  u_7_1  u_8_0  u_8_1 
End
